Welcome to the CBC MILP Solver 
Version: Trunk
Build Date: Apr 16 2020 

Starting solution of the Linear programming relaxation problem using Primal Simplex

Using Python-MIP package version 1.8.1
Machines:  3 Jobs:  3
Order: 
Job  0 : machine 1 ( 7 ) machine 2 ( 7 ) machine 0 ( 1 ) 
Job  1 : machine 1 ( 4 ) machine 0 ( 3 ) machine 2 ( 7 ) 
Job  2 : machine 1 ( 7 ) machine 2 ( 6 ) machine 0 ( 2 ) 
K:  33
Job  0 , e: machine  0 ( 14 ) machine  1 ( 0 ) machine  2 ( 7 ) 
Job  1 , e: machine  0 ( 4 ) machine  1 ( 0 ) machine  2 ( 7 ) 
Job  2 , e: machine  0 ( 13 ) machine  1 ( 0 ) machine  2 ( 7 ) 
Job  0 , f: machine  0 ( 0 ) machine  1 ( 8 ) machine  2 ( 1 ) 
Job  1 , f: machine  0 ( 7 ) machine  1 ( 10 ) machine  2 ( 0 ) 
Job  2 , f: machine  0 ( 0 ) machine  1 ( 8 ) machine  2 ( 2 ) 
EST and LST:
Job: 0 Machine: 0 EST: 14 LST: 32
Job: 0 Machine: 1 EST: 0 LST: 18
Job: 0 Machine: 2 EST: 7 LST: 25
Job: 1 Machine: 0 EST: 4 LST: 23
Job: 1 Machine: 1 EST: 0 LST: 19
Job: 1 Machine: 2 EST: 7 LST: 26
Job: 2 Machine: 0 EST: 13 LST: 31
Job: 2 Machine: 1 EST: 0 LST: 18
Job: 2 Machine: 2 EST: 7 LST: 25
Order:
Job: 0 Machine: 0 = 2 
Job: 0 Machine: 1 = 0 
Job: 0 Machine: 2 = 1 
Job: 1 Machine: 0 = 1 
Job: 1 Machine: 1 = 0 
Job: 1 Machine: 2 = 2 
Job: 2 Machine: 0 = 2 
Job: 2 Machine: 1 = 0 
Job: 2 Machine: 2 = 1 
Distances:
Job 0, Machine 1 -> Machine 2: distance 7
Job 0, Machine 1 -> Machine 0: distance 14
Job 0, Machine 2 -> Machine 0: distance 7
Job 1, Machine 1 -> Machine 0: distance 4
Job 1, Machine 1 -> Machine 2: distance 7
Job 1, Machine 0 -> Machine 2: distance 3
Job 2, Machine 1 -> Machine 2: distance 7
Job 2, Machine 1 -> Machine 0: distance 13
Job 2, Machine 2 -> Machine 0: distance 6
McCormic linearization
{(0, 1), (1, 2), (0, 0), (0, 2), (2, 1), (2, 0), (2, 2), (1, 0), (1, 1)}
[(0, 1), (1, 2), (0, 0), (0, 2), (2, 1), (2, 0), (2, 2), (1, 0), (1, 1)]
obj:  0.0
solutions:  1
+ 0.14285714285714285x(0,1) + 0.14285714285714285x(2,1) 
C:  18.499999999999996
x(0,0) = 17.50	 x(0,1) = 3.50	 x(0,2) = 10.50	 
x(1,0) = 8.50	 x(1,1) = 4.50	 x(1,2) = 11.50	 
x(2,0) = 16.50	 x(2,1) = 3.50	 x(2,2) = 10.50	 
y(0,1,0) = 0.00	 y(1,0,0) = 1.00	 
y(0,2,0) = 0.90	 y(2,0,0) = 0.10	 
y(1,2,0) = 0.59	 y(2,1,0) = 0.41	 
y(0,1,1) = 0.22	 y(1,0,1) = 0.78	 
y(0,2,1) = 0.72	 y(2,0,1) = 0.28	 
y(1,2,1) = 0.36	 y(2,1,1) = 0.64	 
y(0,1,2) = 0.76	 y(1,0,2) = 0.24	 
y(0,2,2) = 0.42	 y(2,0,2) = 0.58	 
y(1,2,2) = 0.50	 y(2,1,2) = 0.50	 
{(1, 2), (0, 1), (0, 0), (2, 1), (1, 1), (2, 2), (1, 0), (0, 2)}
obj:  0.638095238095238
solutions:  1
+ 0.06666666666666667x(0,1) + 0.06666666666666667x(2,1) + 0.038095238095238106x(1,1) 
[(1, 2), (0, 1), (0, 0), (2, 1), (1, 1), (2, 2), (1, 0), (0, 2)]
cliques:  1 mip: 10
C:  22.0
x(0,0) = 17.83	 x(0,1) = 3.83	 x(0,2) = 10.83	 
x(1,0) = 11.29	 x(1,1) = 7.29	 x(1,2) = 15.00	 
x(2,0) = 20.00	 x(2,1) = 7.00	 x(2,2) = 14.00	 
y(0,1,0) = 0.00	 y(1,0,0) = 1.00	 
y(0,2,0) = 0.93	 y(2,0,0) = 0.07	 
y(1,2,0) = 0.46	 y(2,1,0) = 0.54	 
y(0,1,1) = 0.86	 y(1,0,1) = 0.14	 
y(0,2,1) = 0.45	 y(2,0,1) = 0.55	 
y(1,2,1) = 0.27	 y(2,1,1) = 0.73	 
y(0,1,2) = 0.53	 y(1,0,2) = 0.47	 
y(0,2,2) = 0.38	 y(2,0,2) = 0.62	 
y(1,2,2) = 0.69	 y(2,1,2) = 0.31	 
{(1, 2), (0, 1), (2, 1), (1, 1), (2, 2), (1, 0), (0, 2)}
obj:  0.97008547008547
solutions:  1
+ 0.025641025641025637x(1,2) + 0.021978021978021983x(2,2) + 0.025641025641025637x(0,2) 
[(1, 2), (0, 1), (2, 1), (1, 1), (2, 2), (1, 0), (0, 2)]
cliques:  1 mip: 33
C:  22.7525
x(0,0) = 20.10	 x(0,1) = 4.15	 x(0,2) = 13.10	 
x(1,0) = 10.25	 x(1,1) = 5.42	 x(1,2) = 13.25	 
x(2,0) = 20.75	 x(2,1) = 7.75	 x(2,2) = 14.75	 
y(0,1,0) = 0.00	 y(1,0,0) = 1.00	 
y(0,2,0) = 0.82	 y(2,0,0) = 0.18	 
y(1,2,0) = 0.75	 y(2,1,0) = 0.25	 
y(0,1,1) = 0.33	 y(1,0,1) = 0.67	 
y(0,2,1) = 0.42	 y(2,0,1) = 0.58	 
y(1,2,1) = 0.92	 y(2,1,1) = 0.08	 
y(0,1,2) = 0.27	 y(1,0,2) = 0.72	 
y(0,2,2) = 0.59	 y(2,0,2) = 0.41	 
y(1,2,2) = 0.31	 y(2,1,2) = 0.69	 
{(0, 1), (1, 1), (2, 1)}
obj:  1.0
erro
[(0, 1), (1, 1), (2, 1)]
cliques:  0 mip: 37
C:  24.11428437182877
x(0,0) = 23.01	 x(0,1) = 4.69	 x(0,2) = 16.01	 
x(1,0) = 6.26	 x(1,1) = 2.26	 x(1,2) = 9.26	 
x(2,0) = 22.02	 x(2,1) = 9.02	 x(2,2) = 16.02	 
y(0,1,0) = 0.00	 y(1,0,0) = 1.00	 
y(0,2,0) = 0.05	 y(2,0,0) = 0.95	 
y(1,2,0) = 0.79	 y(2,1,0) = 0.21	 
y(0,1,1) = 0.07	 y(1,0,1) = 0.93	 
y(0,2,1) = 0.59	 y(2,0,1) = 0.41	 
y(1,2,1) = 0.82	 y(2,1,1) = 0.18	 
y(0,1,2) = 0.02	 y(1,0,2) = 0.98	 
y(0,2,2) = 0.25	 y(2,0,2) = 0.75	 
y(1,2,2) = 0.98	 y(2,1,2) = 0.02	 
{(0, 1), (1, 1), (2, 1)}
obj:  1.0
erro
[(0, 1), (1, 1), (2, 1)]
cliques:  0 mip: 35
C:  24.999994259061907
x(0,0) = 23.88	 x(0,1) = 6.05	 x(0,2) = 15.65	 
x(1,0) = 8.22	 x(1,1) = 4.22	 x(1,2) = 11.22	 
x(2,0) = 23.00	 x(2,1) = 7.15	 x(2,2) = 14.15	 
y(0,1,0) = 0.00	 y(1,0,0) = 1.00	 
y(0,2,0) = 0.06	 y(2,0,0) = 0.94	 
y(1,2,0) = 1.00	 y(2,1,0) = 0.00	 
y(0,1,1) = 0.09	 y(1,0,1) = 0.91	 
y(0,2,1) = 0.32	 y(2,0,1) = 0.68	 
y(1,2,1) = 0.40	 y(2,1,1) = 0.60	 
y(0,1,2) = 0.22	 y(1,0,2) = 0.78	 
y(0,2,2) = 0.49	 y(2,0,2) = 0.51	 
y(1,2,2) = 0.43	 y(2,1,2) = 0.57	 
{(0, 1), (1, 2), (2, 1), (1, 1), (2, 2), (0, 2)}
obj:  1.0
erro
[(0, 1), (1, 2), (2, 1), (1, 1), (2, 2), (0, 2)]
cliques:  0 mip: 42
C:  24.999994259061914
x(0,0) = 24.00	 x(0,1) = 6.05	 x(0,2) = 15.65	 
x(1,0) = 8.22	 x(1,1) = 4.22	 x(1,2) = 11.22	 
x(2,0) = 22.00	 x(2,1) = 7.15	 x(2,2) = 14.15	 
y(0,1,0) = 0.00	 y(1,0,0) = 1.00	 
y(0,2,0) = 0.00	 y(2,0,0) = 1.00	 
y(1,2,0) = 1.00	 y(2,1,0) = 0.00	 
y(0,1,1) = 0.09	 y(1,0,1) = 0.91	 
y(0,2,1) = 0.32	 y(2,0,1) = 0.68	 
y(1,2,1) = 0.40	 y(2,1,1) = 0.60	 
y(0,1,2) = 0.22	 y(1,0,2) = 0.78	 
y(0,2,2) = 0.49	 y(2,0,2) = 0.51	 
y(1,2,2) = 0.43	 y(2,1,2) = 0.57	 
{(0, 1), (1, 2), (2, 1), (1, 1), (2, 2), (0, 2)}
obj:  1.0
erro
[(0, 1), (1, 2), (2, 1), (1, 1), (2, 2), (0, 2)]
cliques:  0 mip: 39
C:  24.999994259061914
x(0,0) = 24.00	 x(0,1) = 6.05	 x(0,2) = 15.65	 
x(1,0) = 8.22	 x(1,1) = 4.22	 x(1,2) = 11.22	 
x(2,0) = 22.00	 x(2,1) = 7.15	 x(2,2) = 14.15	 
y(0,1,0) = 0.00	 y(1,0,0) = 1.00	 
y(0,2,0) = 0.00	 y(2,0,0) = 1.00	 
y(1,2,0) = 1.00	 y(2,1,0) = 0.00	 
y(0,1,1) = 0.09	 y(1,0,1) = 0.91	 
y(0,2,1) = 0.32	 y(2,0,1) = 0.68	 
y(1,2,1) = 0.40	 y(2,1,1) = 0.60	 
y(0,1,2) = 0.22	 y(1,0,2) = 0.78	 
y(0,2,2) = 0.49	 y(2,0,2) = 0.51	 
y(1,2,2) = 0.43	 y(2,1,2) = 0.57	 
{(0, 1), (1, 2), (2, 1), (1, 1), (2, 2), (0, 2)}
obj:  1.0
erro
[(0, 1), (1, 2), (2, 1), (1, 1), (2, 2), (0, 2)]
cliques:  0 mip: 39
C:  24.999994259061914
x(0,0) = 24.00	 x(0,1) = 6.05	 x(0,2) = 15.65	 
x(1,0) = 8.22	 x(1,1) = 4.22	 x(1,2) = 11.22	 
x(2,0) = 22.00	 x(2,1) = 7.15	 x(2,2) = 14.15	 
y(0,1,0) = 0.00	 y(1,0,0) = 1.00	 
y(0,2,0) = 0.00	 y(2,0,0) = 1.00	 
y(1,2,0) = 1.00	 y(2,1,0) = 0.00	 
y(0,1,1) = 0.09	 y(1,0,1) = 0.91	 
y(0,2,1) = 0.32	 y(2,0,1) = 0.68	 
y(1,2,1) = 0.40	 y(2,1,1) = 0.60	 
y(0,1,2) = 0.22	 y(1,0,2) = 0.78	 
y(0,2,2) = 0.49	 y(2,0,2) = 0.51	 
y(1,2,2) = 0.43	 y(2,1,2) = 0.57	 
{(0, 1), (1, 2), (2, 1), (1, 1), (2, 2), (0, 2)}
obj:  1.0
erro
[(0, 1), (1, 2), (2, 1), (1, 1), (2, 2), (0, 2)]
cliques:  0 mip: 39
C:  24.999994259061914
x(0,0) = 24.00	 x(0,1) = 6.05	 x(0,2) = 15.65	 
x(1,0) = 8.22	 x(1,1) = 4.22	 x(1,2) = 11.22	 
x(2,0) = 22.00	 x(2,1) = 7.15	 x(2,2) = 14.15	 
y(0,1,0) = 0.00	 y(1,0,0) = 1.00	 
y(0,2,0) = 0.00	 y(2,0,0) = 1.00	 
y(1,2,0) = 1.00	 y(2,1,0) = 0.00	 
y(0,1,1) = 0.09	 y(1,0,1) = 0.91	 
y(0,2,1) = 0.32	 y(2,0,1) = 0.68	 
y(1,2,1) = 0.40	 y(2,1,1) = 0.60	 
y(0,1,2) = 0.22	 y(1,0,2) = 0.78	 
y(0,2,2) = 0.49	 y(2,0,2) = 0.51	 
y(1,2,2) = 0.43	 y(2,1,2) = 0.57	 
{(0, 1), (1, 2), (2, 1), (1, 1), (2, 2), (0, 2)}
obj:  1.0
erro
[(0, 1), (1, 2), (2, 1), (1, 1), (2, 2), (0, 2)]
cliques:  0 mip: 39
C:  24.999994259061914
x(0,0) = 24.00	 x(0,1) = 6.05	 x(0,2) = 15.65	 
x(1,0) = 8.22	 x(1,1) = 4.22	 x(1,2) = 11.22	 
x(2,0) = 22.00	 x(2,1) = 7.15	 x(2,2) = 14.15	 
y(0,1,0) = 0.00	 y(1,0,0) = 1.00	 
y(0,2,0) = 0.00	 y(2,0,0) = 1.00	 
y(1,2,0) = 1.00	 y(2,1,0) = 0.00	 
y(0,1,1) = 0.09	 y(1,0,1) = 0.91	 
y(0,2,1) = 0.32	 y(2,0,1) = 0.68	 
y(1,2,1) = 0.40	 y(2,1,1) = 0.60	 
y(0,1,2) = 0.22	 y(1,0,2) = 0.78	 
y(0,2,2) = 0.49	 y(2,0,2) = 0.51	 
y(1,2,2) = 0.43	 y(2,1,2) = 0.57	 
{(0, 1), (1, 2), (2, 1), (1, 1), (2, 2), (0, 2)}
obj:  1.0
erro
[(0, 1), (1, 2), (2, 1), (1, 1), (2, 2), (0, 2)]
cliques:  0 mip: 39
C:  24.999994259061914
x(0,0) = 24.00	 x(0,1) = 6.05	 x(0,2) = 15.65	 
x(1,0) = 8.22	 x(1,1) = 4.22	 x(1,2) = 11.22	 
x(2,0) = 22.00	 x(2,1) = 7.15	 x(2,2) = 14.15	 
y(0,1,0) = 0.00	 y(1,0,0) = 1.00	 
y(0,2,0) = 0.00	 y(2,0,0) = 1.00	 
y(1,2,0) = 1.00	 y(2,1,0) = 0.00	 
y(0,1,1) = 0.09	 y(1,0,1) = 0.91	 
y(0,2,1) = 0.32	 y(2,0,1) = 0.68	 
y(1,2,1) = 0.40	 y(2,1,1) = 0.60	 
y(0,1,2) = 0.22	 y(1,0,2) = 0.78	 
y(0,2,2) = 0.49	 y(2,0,2) = 0.51	 
y(1,2,2) = 0.43	 y(2,1,2) = 0.57	 
{(0, 1), (1, 2), (2, 1), (1, 1), (2, 2), (0, 2)}
obj:  1.0
erro
[(0, 1), (1, 2), (2, 1), (1, 1), (2, 2), (0, 2)]
cliques:  0 mip: 39
C:  24.999994259061914
x(0,0) = 24.00	 x(0,1) = 6.05	 x(0,2) = 15.65	 
x(1,0) = 8.22	 x(1,1) = 4.22	 x(1,2) = 11.22	 
x(2,0) = 22.00	 x(2,1) = 7.15	 x(2,2) = 14.15	 
y(0,1,0) = 0.00	 y(1,0,0) = 1.00	 
y(0,2,0) = 0.00	 y(2,0,0) = 1.00	 
y(1,2,0) = 1.00	 y(2,1,0) = 0.00	 
y(0,1,1) = 0.09	 y(1,0,1) = 0.91	 
y(0,2,1) = 0.32	 y(2,0,1) = 0.68	 
y(1,2,1) = 0.40	 y(2,1,1) = 0.60	 
y(0,1,2) = 0.22	 y(1,0,2) = 0.78	 
y(0,2,2) = 0.49	 y(2,0,2) = 0.51	 
y(1,2,2) = 0.43	 y(2,1,2) = 0.57	 
{(0, 1), (1, 2), (2, 1), (1, 1), (2, 2), (0, 2)}
obj:  1.0
erro
[(0, 1), (1, 2), (2, 1), (1, 1), (2, 2), (0, 2)]
cliques:  0 mip: 39
C:  24.999994259061914
x(0,0) = 24.00	 x(0,1) = 6.05	 x(0,2) = 15.65	 
x(1,0) = 8.22	 x(1,1) = 4.22	 x(1,2) = 11.22	 
x(2,0) = 22.00	 x(2,1) = 7.15	 x(2,2) = 14.15	 
y(0,1,0) = 0.00	 y(1,0,0) = 1.00	 
y(0,2,0) = 0.00	 y(2,0,0) = 1.00	 
y(1,2,0) = 1.00	 y(2,1,0) = 0.00	 
y(0,1,1) = 0.09	 y(1,0,1) = 0.91	 
y(0,2,1) = 0.32	 y(2,0,1) = 0.68	 
y(1,2,1) = 0.40	 y(2,1,1) = 0.60	 
y(0,1,2) = 0.22	 y(1,0,2) = 0.78	 
y(0,2,2) = 0.49	 y(2,0,2) = 0.51	 
y(1,2,2) = 0.43	 y(2,1,2) = 0.57	 
{(0, 1), (1, 2), (2, 1), (1, 1), (2, 2), (0, 2)}
obj:  1.0
erro
[(0, 1), (1, 2), (2, 1), (1, 1), (2, 2), (0, 2)]
cliques:  0 mip: 39
C:  24.999994259061914
x(0,0) = 24.00	 x(0,1) = 6.05	 x(0,2) = 15.65	 
x(1,0) = 8.22	 x(1,1) = 4.22	 x(1,2) = 11.22	 
x(2,0) = 22.00	 x(2,1) = 7.15	 x(2,2) = 14.15	 
y(0,1,0) = 0.00	 y(1,0,0) = 1.00	 
y(0,2,0) = 0.00	 y(2,0,0) = 1.00	 
y(1,2,0) = 1.00	 y(2,1,0) = 0.00	 
y(0,1,1) = 0.09	 y(1,0,1) = 0.91	 
y(0,2,1) = 0.32	 y(2,0,1) = 0.68	 
y(1,2,1) = 0.40	 y(2,1,1) = 0.60	 
y(0,1,2) = 0.22	 y(1,0,2) = 0.78	 
y(0,2,2) = 0.49	 y(2,0,2) = 0.51	 
y(1,2,2) = 0.43	 y(2,1,2) = 0.57	 
{(0, 1), (1, 2), (2, 1), (1, 1), (2, 2), (0, 2)}
obj:  1.0
erro
[(0, 1), (1, 2), (2, 1), (1, 1), (2, 2), (0, 2)]
cliques:  0 mip: 39
C:  24.999994259061914
x(0,0) = 24.00	 x(0,1) = 6.05	 x(0,2) = 15.65	 
x(1,0) = 8.22	 x(1,1) = 4.22	 x(1,2) = 11.22	 
x(2,0) = 22.00	 x(2,1) = 7.15	 x(2,2) = 14.15	 
y(0,1,0) = 0.00	 y(1,0,0) = 1.00	 
y(0,2,0) = 0.00	 y(2,0,0) = 1.00	 
y(1,2,0) = 1.00	 y(2,1,0) = 0.00	 
y(0,1,1) = 0.09	 y(1,0,1) = 0.91	 
y(0,2,1) = 0.32	 y(2,0,1) = 0.68	 
y(1,2,1) = 0.40	 y(2,1,1) = 0.60	 
y(0,1,2) = 0.22	 y(1,0,2) = 0.78	 
y(0,2,2) = 0.49	 y(2,0,2) = 0.51	 
y(1,2,2) = 0.43	 y(2,1,2) = 0.57	 
{(0, 1), (1, 2), (2, 1), (1, 1), (2, 2), (0, 2)}
obj:  1.0
erro
[(0, 1), (1, 2), (2, 1), (1, 1), (2, 2), (0, 2)]
cliques:  0 mip: 39
C:  24.999994259061914
x(0,0) = 24.00	 x(0,1) = 6.05	 x(0,2) = 15.65	 
x(1,0) = 8.22	 x(1,1) = 4.22	 x(1,2) = 11.22	 
x(2,0) = 22.00	 x(2,1) = 7.15	 x(2,2) = 14.15	 
y(0,1,0) = 0.00	 y(1,0,0) = 1.00	 
y(0,2,0) = 0.00	 y(2,0,0) = 1.00	 
y(1,2,0) = 1.00	 y(2,1,0) = 0.00	 
y(0,1,1) = 0.09	 y(1,0,1) = 0.91	 
y(0,2,1) = 0.32	 y(2,0,1) = 0.68	 
y(1,2,1) = 0.40	 y(2,1,1) = 0.60	 
y(0,1,2) = 0.22	 y(1,0,2) = 0.78	 
y(0,2,2) = 0.49	 y(2,0,2) = 0.51	 
y(1,2,2) = 0.43	 y(2,1,2) = 0.57	 
{(0, 1), (1, 2), (2, 1), (1, 1), (2, 2), (0, 2)}
obj:  1.0
erro
[(0, 1), (1, 2), (2, 1), (1, 1), (2, 2), (0, 2)]
cliques:  0 mip: 39
C:  24.999994259061914
x(0,0) = 24.00	 x(0,1) = 6.05	 x(0,2) = 15.65	 
x(1,0) = 8.22	 x(1,1) = 4.22	 x(1,2) = 11.22	 
x(2,0) = 22.00	 x(2,1) = 7.15	 x(2,2) = 14.15	 
y(0,1,0) = 0.00	 y(1,0,0) = 1.00	 
y(0,2,0) = 0.00	 y(2,0,0) = 1.00	 
y(1,2,0) = 1.00	 y(2,1,0) = 0.00	 
y(0,1,1) = 0.09	 y(1,0,1) = 0.91	 
y(0,2,1) = 0.32	 y(2,0,1) = 0.68	 
y(1,2,1) = 0.40	 y(2,1,1) = 0.60	 
y(0,1,2) = 0.22	 y(1,0,2) = 0.78	 
y(0,2,2) = 0.49	 y(2,0,2) = 0.51	 
y(1,2,2) = 0.43	 y(2,1,2) = 0.57	 
{(0, 1), (1, 2), (2, 1), (1, 1), (2, 2), (0, 2)}
obj:  1.0
erro
[(0, 1), (1, 2), (2, 1), (1, 1), (2, 2), (0, 2)]
cliques:  0 mip: 39
C:  24.999994259061914
x(0,0) = 24.00	 x(0,1) = 6.05	 x(0,2) = 15.65	 
x(1,0) = 8.22	 x(1,1) = 4.22	 x(1,2) = 11.22	 
x(2,0) = 22.00	 x(2,1) = 7.15	 x(2,2) = 14.15	 
y(0,1,0) = 0.00	 y(1,0,0) = 1.00	 
y(0,2,0) = 0.00	 y(2,0,0) = 1.00	 
y(1,2,0) = 1.00	 y(2,1,0) = 0.00	 
y(0,1,1) = 0.09	 y(1,0,1) = 0.91	 
y(0,2,1) = 0.32	 y(2,0,1) = 0.68	 
y(1,2,1) = 0.40	 y(2,1,1) = 0.60	 
y(0,1,2) = 0.22	 y(1,0,2) = 0.78	 
y(0,2,2) = 0.49	 y(2,0,2) = 0.51	 
y(1,2,2) = 0.43	 y(2,1,2) = 0.57	 
{(0, 1), (1, 2), (2, 1), (1, 1), (2, 2), (0, 2)}
obj:  1.0
erro
[(0, 1), (1, 2), (2, 1), (1, 1), (2, 2), (0, 2)]
cliques:  0 mip: 39
C:  24.999994259061914
x(0,0) = 24.00	 x(0,1) = 6.05	 x(0,2) = 15.65	 
x(1,0) = 8.22	 x(1,1) = 4.22	 x(1,2) = 11.22	 
x(2,0) = 22.00	 x(2,1) = 7.15	 x(2,2) = 14.15	 
y(0,1,0) = 0.00	 y(1,0,0) = 1.00	 
y(0,2,0) = 0.00	 y(2,0,0) = 1.00	 
y(1,2,0) = 1.00	 y(2,1,0) = 0.00	 
y(0,1,1) = 0.09	 y(1,0,1) = 0.91	 
y(0,2,1) = 0.32	 y(2,0,1) = 0.68	 
y(1,2,1) = 0.40	 y(2,1,1) = 0.60	 
y(0,1,2) = 0.22	 y(1,0,2) = 0.78	 
y(0,2,2) = 0.49	 y(2,0,2) = 0.51	 
y(1,2,2) = 0.43	 y(2,1,2) = 0.57	 
{(0, 1), (1, 2), (2, 1), (1, 1), (2, 2), (0, 2)}
obj:  1.0
erro
[(0, 1), (1, 2), (2, 1), (1, 1), (2, 2), (0, 2)]
cliques:  0 mip: 39
C:  24.999994259061914
x(0,0) = 24.00	 x(0,1) = 6.05	 x(0,2) = 15.65	 
x(1,0) = 8.22	 x(1,1) = 4.22	 x(1,2) = 11.22	 
x(2,0) = 22.00	 x(2,1) = 7.15	 x(2,2) = 14.15	 
y(0,1,0) = 0.00	 y(1,0,0) = 1.00	 
y(0,2,0) = 0.00	 y(2,0,0) = 1.00	 
y(1,2,0) = 1.00	 y(2,1,0) = 0.00	 
y(0,1,1) = 0.09	 y(1,0,1) = 0.91	 
y(0,2,1) = 0.32	 y(2,0,1) = 0.68	 
y(1,2,1) = 0.40	 y(2,1,1) = 0.60	 
y(0,1,2) = 0.22	 y(1,0,2) = 0.78	 
y(0,2,2) = 0.49	 y(2,0,2) = 0.51	 
y(1,2,2) = 0.43	 y(2,1,2) = 0.57	 
{(0, 1), (1, 2), (2, 1), (1, 1), (2, 2), (0, 2)}
obj:  1.0
erro
[(0, 1), (1, 2), (2, 1), (1, 1), (2, 2), (0, 2)]
cliques:  0 mip: 39
C:  24.999994259061914
x(0,0) = 24.00	 x(0,1) = 6.05	 x(0,2) = 15.65	 
x(1,0) = 8.22	 x(1,1) = 4.22	 x(1,2) = 11.22	 
x(2,0) = 22.00	 x(2,1) = 7.15	 x(2,2) = 14.15	 
y(0,1,0) = 0.00	 y(1,0,0) = 1.00	 
y(0,2,0) = 0.00	 y(2,0,0) = 1.00	 
y(1,2,0) = 1.00	 y(2,1,0) = 0.00	 
y(0,1,1) = 0.09	 y(1,0,1) = 0.91	 
y(0,2,1) = 0.32	 y(2,0,1) = 0.68	 
y(1,2,1) = 0.40	 y(2,1,1) = 0.60	 
y(0,1,2) = 0.22	 y(1,0,2) = 0.78	 
y(0,2,2) = 0.49	 y(2,0,2) = 0.51	 
y(1,2,2) = 0.43	 y(2,1,2) = 0.57	 
{(0, 1), (1, 2), (2, 1), (1, 1), (2, 2), (0, 2)}
obj:  1.0
erro
[(0, 1), (1, 2), (2, 1), (1, 1), (2, 2), (0, 2)]
cliques:  0 mip: 39
C:  24.999994259061914
x(0,0) = 24.00	 x(0,1) = 6.05	 x(0,2) = 15.65	 
x(1,0) = 8.22	 x(1,1) = 4.22	 x(1,2) = 11.22	 
x(2,0) = 22.00	 x(2,1) = 7.15	 x(2,2) = 14.15	 
y(0,1,0) = 0.00	 y(1,0,0) = 1.00	 
y(0,2,0) = 0.00	 y(2,0,0) = 1.00	 
y(1,2,0) = 1.00	 y(2,1,0) = 0.00	 
y(0,1,1) = 0.09	 y(1,0,1) = 0.91	 
y(0,2,1) = 0.32	 y(2,0,1) = 0.68	 
y(1,2,1) = 0.40	 y(2,1,1) = 0.60	 
y(0,1,2) = 0.22	 y(1,0,2) = 0.78	 
y(0,2,2) = 0.49	 y(2,0,2) = 0.51	 
y(1,2,2) = 0.43	 y(2,1,2) = 0.57	 
{(0, 1), (1, 2), (2, 1), (1, 1), (2, 2), (0, 2)}
obj:  1.0
erro
[(0, 1), (1, 2), (2, 1), (1, 1), (2, 2), (0, 2)]
cliques:  0 mip: 39
C:  24.999994259061914
x(0,0) = 24.00	 x(0,1) = 6.05	 x(0,2) = 15.65	 
x(1,0) = 8.22	 x(1,1) = 4.22	 x(1,2) = 11.22	 
x(2,0) = 22.00	 x(2,1) = 7.15	 x(2,2) = 14.15	 
y(0,1,0) = 0.00	 y(1,0,0) = 1.00	 
y(0,2,0) = 0.00	 y(2,0,0) = 1.00	 
y(1,2,0) = 1.00	 y(2,1,0) = 0.00	 
y(0,1,1) = 0.09	 y(1,0,1) = 0.91	 
y(0,2,1) = 0.32	 y(2,0,1) = 0.68	 
y(1,2,1) = 0.40	 y(2,1,1) = 0.60	 
y(0,1,2) = 0.22	 y(1,0,2) = 0.78	 
y(0,2,2) = 0.49	 y(2,0,2) = 0.51	 
y(1,2,2) = 0.43	 y(2,1,2) = 0.57	 
{(0, 1), (1, 2), (2, 1), (1, 1), (2, 2), (0, 2)}
obj:  1.0
erro
[(0, 1), (1, 2), (2, 1), (1, 1), (2, 2), (0, 2)]
cliques:  0 mip: 39
C:  24.999994259061914
x(0,0) = 24.00	 x(0,1) = 6.05	 x(0,2) = 15.65	 
x(1,0) = 8.22	 x(1,1) = 4.22	 x(1,2) = 11.22	 
x(2,0) = 22.00	 x(2,1) = 7.15	 x(2,2) = 14.15	 
y(0,1,0) = 0.00	 y(1,0,0) = 1.00	 
y(0,2,0) = 0.00	 y(2,0,0) = 1.00	 
y(1,2,0) = 1.00	 y(2,1,0) = 0.00	 
y(0,1,1) = 0.09	 y(1,0,1) = 0.91	 
y(0,2,1) = 0.32	 y(2,0,1) = 0.68	 
y(1,2,1) = 0.40	 y(2,1,1) = 0.60	 
y(0,1,2) = 0.22	 y(1,0,2) = 0.78	 
y(0,2,2) = 0.49	 y(2,0,2) = 0.51	 
y(1,2,2) = 0.43	 y(2,1,2) = 0.57	 
{(0, 1), (1, 2), (2, 1), (1, 1), (2, 2), (0, 2)}
obj:  1.0
erro
[(0, 1), (1, 2), (2, 1), (1, 1), (2, 2), (0, 2)]
cliques:  0 mip: 39
C:  24.999994259061914
x(0,0) = 24.00	 x(0,1) = 6.05	 x(0,2) = 15.65	 
x(1,0) = 8.22	 x(1,1) = 4.22	 x(1,2) = 11.22	 
x(2,0) = 22.00	 x(2,1) = 7.15	 x(2,2) = 14.15	 
y(0,1,0) = 0.00	 y(1,0,0) = 1.00	 
y(0,2,0) = 0.00	 y(2,0,0) = 1.00	 
y(1,2,0) = 1.00	 y(2,1,0) = 0.00	 
y(0,1,1) = 0.09	 y(1,0,1) = 0.91	 
y(0,2,1) = 0.32	 y(2,0,1) = 0.68	 
y(1,2,1) = 0.40	 y(2,1,1) = 0.60	 
y(0,1,2) = 0.22	 y(1,0,2) = 0.78	 
y(0,2,2) = 0.49	 y(2,0,2) = 0.51	 
y(1,2,2) = 0.43	 y(2,1,2) = 0.57	 
{(0, 1), (1, 2), (2, 1), (1, 1), (2, 2), (0, 2)}
obj:  1.0
erro
[(0, 1), (1, 2), (2, 1), (1, 1), (2, 2), (0, 2)]
cliques:  0 mip: 39
C:  24.999994259061914
x(0,0) = 24.00	 x(0,1) = 6.05	 x(0,2) = 15.65	 
x(1,0) = 8.22	 x(1,1) = 4.22	 x(1,2) = 11.22	 
x(2,0) = 22.00	 x(2,1) = 7.15	 x(2,2) = 14.15	 
y(0,1,0) = 0.00	 y(1,0,0) = 1.00	 
y(0,2,0) = 0.00	 y(2,0,0) = 1.00	 
y(1,2,0) = 1.00	 y(2,1,0) = 0.00	 
y(0,1,1) = 0.09	 y(1,0,1) = 0.91	 
y(0,2,1) = 0.32	 y(2,0,1) = 0.68	 
y(1,2,1) = 0.40	 y(2,1,1) = 0.60	 
y(0,1,2) = 0.22	 y(1,0,2) = 0.78	 
y(0,2,2) = 0.49	 y(2,0,2) = 0.51	 
y(1,2,2) = 0.43	 y(2,1,2) = 0.57	 
{(0, 1), (1, 2), (2, 1), (1, 1), (2, 2), (0, 2)}
obj:  1.0
erro
[(0, 1), (1, 2), (2, 1), (1, 1), (2, 2), (0, 2)]
cliques:  0 mip: 39
C:  24.999994259061914
x(0,0) = 24.00	 x(0,1) = 6.05	 x(0,2) = 15.65	 
x(1,0) = 8.22	 x(1,1) = 4.22	 x(1,2) = 11.22	 
x(2,0) = 22.00	 x(2,1) = 7.15	 x(2,2) = 14.15	 
y(0,1,0) = 0.00	 y(1,0,0) = 1.00	 
y(0,2,0) = 0.00	 y(2,0,0) = 1.00	 
y(1,2,0) = 1.00	 y(2,1,0) = 0.00	 
y(0,1,1) = 0.09	 y(1,0,1) = 0.91	 
y(0,2,1) = 0.32	 y(2,0,1) = 0.68	 
y(1,2,1) = 0.40	 y(2,1,1) = 0.60	 
y(0,1,2) = 0.22	 y(1,0,2) = 0.78	 
y(0,2,2) = 0.49	 y(2,0,2) = 0.51	 
y(1,2,2) = 0.43	 y(2,1,2) = 0.57	 
{(0, 1), (1, 2), (2, 1), (1, 1), (2, 2), (0, 2)}
obj:  1.0
erro
[(0, 1), (1, 2), (2, 1), (1, 1), (2, 2), (0, 2)]
cliques:  0 mip: 39
C:  24.999994259061914
x(0,0) = 24.00	 x(0,1) = 6.05	 x(0,2) = 15.65	 
x(1,0) = 8.22	 x(1,1) = 4.22	 x(1,2) = 11.22	 
x(2,0) = 22.00	 x(2,1) = 7.15	 x(2,2) = 14.15	 
y(0,1,0) = 0.00	 y(1,0,0) = 1.00	 
y(0,2,0) = 0.00	 y(2,0,0) = 1.00	 
y(1,2,0) = 1.00	 y(2,1,0) = 0.00	 
y(0,1,1) = 0.09	 y(1,0,1) = 0.91	 
y(0,2,1) = 0.32	 y(2,0,1) = 0.68	 
y(1,2,1) = 0.40	 y(2,1,1) = 0.60	 
y(0,1,2) = 0.22	 y(1,0,2) = 0.78	 
y(0,2,2) = 0.49	 y(2,0,2) = 0.51	 
y(1,2,2) = 0.43	 y(2,1,2) = 0.57	 
{(0, 1), (1, 2), (2, 1), (1, 1), (2, 2), (0, 2)}
obj:  1.0
erro
[(0, 1), (1, 2), (2, 1), (1, 1), (2, 2), (0, 2)]
cliques:  0 mip: 0
iterações: 28 cortes cliques encontrados: 3 mip: 1025 objective:  24.999994259061914
Coin0506I Presolve 65 (-61) rows, 39 (-25) columns and 202 (-86) elements
Clp1000I sum of infeasibilities 3.24924e-06 - average 4.99884e-08, 0 fixed columns
Coin0506I Presolve 65 (0) rows, 39 (0) columns and 202 (0) elements
Clp0029I End of values pass after 39 iterations
Clp0000I Optimal - objective value 15
Clp0000I Optimal - objective value 15
Coin0511I After Postsolve, objective 15, infeasibilities - dual 0 (0), primal 0 (0)
Clp0000I Optimal - objective value 15
Clp0000I Optimal - objective value 15
Clp0000I Optimal - objective value 15
Coin0511I After Postsolve, objective 15, infeasibilities - dual 0 (0), primal 0 (0)
Clp0032I Optimal objective 15 - 0 iterations time 0.002, Presolve 0.00, Idiot 0.00
Coin3009W Conflict graph built in 0.000 seconds, density: 0.178%
